(set-info :smt-lib-version 2.6)
(set-info :category "crafted")
(set-logic QF_FFA)
(define-sort FF0 () (_ FiniteField 52435875175126190479447740508185965837690552500527637822603658699938581184513))
(declare-fun j () Bool)
(declare-fun e () Bool)
(declare-fun a () Bool)
(declare-fun h () Bool)
(declare-fun i () Bool)
(declare-fun f () Bool)
(declare-fun c () Bool)
(declare-fun b () Bool)
(declare-fun d () Bool)
(declare-fun g () Bool)
(declare-fun out () FF0)
(declare-fun _219 () FF0)
(declare-fun _87 () FF0)
(declare-fun _218 () FF0)
(declare-fun _97 () FF0)
(declare-fun _217 () FF0)
(declare-fun _158 () FF0)
(declare-fun _157 () FF0)
(declare-fun _216 () FF0)
(declare-fun _173 () FF0)
(declare-fun _215 () FF0)
(declare-fun _174 () FF0)
(declare-fun _214 () FF0)
(declare-fun _186 () FF0)
(declare-fun _185 () FF0)
(declare-fun _213 () FF0)
(declare-fun _192 () FF0)
(declare-fun _191 () FF0)
(declare-fun _212 () FF0)
(declare-fun _198 () FF0)
(declare-fun _197 () FF0)
(declare-fun _211 () FF0)
(declare-fun _204 () FF0)
(declare-fun _203 () FF0)
(declare-fun _210 () FF0)
(declare-fun _73 () FF0)
(declare-fun _209 () FF0)
(declare-fun _206 () FF0)
(declare-fun _208 () FF0)
(declare-fun _153 () FF0)
(declare-fun _21 () FF0)
(declare-fun _132 () FF0)
(declare-fun _92 () FF0)
(declare-fun _91 () FF0)
(declare-fun _76 () FF0)
(declare-fun _74 () FF0)
(declare-fun _131 () FF0)
(declare-fun _180 () FF0)
(declare-fun _179 () FF0)
(declare-fun _145 () FF0)
(declare-fun _133 () FF0)
(declare-fun _134 () FF0)
(declare-fun _96 () FF0)
(declare-fun _108 () FF0)
(declare-fun _172 () FF0)
(declare-fun _19 () FF0)
(declare-fun _171 () FF0)
(declare-fun _121 () FF0)
(declare-fun _170 () FF0)
(declare-fun _169 () FF0)
(declare-fun _52 () FF0)
(declare-fun _168 () FF0)
(declare-fun _3 () FF0)
(declare-fun _167 () FF0)
(declare-fun _166 () FF0)
(declare-fun _165 () FF0)
(declare-fun _18 () FF0)
(declare-fun _164 () FF0)
(declare-fun _163 () FF0)
(declare-fun _79 () FF0)
(declare-fun _162 () FF0)
(declare-fun _66 () FF0)
(declare-fun _161 () FF0)
(declare-fun _160 () FF0)
(declare-fun _84 () FF0)
(declare-fun _83 () FF0)
(declare-fun _116 () FF0)
(declare-fun _115 () FF0)
(declare-fun _5 () FF0)
(declare-fun _152 () FF0)
(declare-fun _111 () FF0)
(declare-fun _150 () FF0)
(declare-fun _149 () FF0)
(declare-fun _127 () FF0)
(declare-fun _126 () FF0)
(declare-fun _144 () FF0)
(declare-fun _33 () FF0)
(declare-fun _143 () FF0)
(declare-fun _142 () FF0)
(declare-fun _6 () FF0)
(declare-fun _141 () FF0)
(declare-fun _140 () FF0)
(declare-fun _139 () FF0)
(declare-fun _138 () FF0)
(declare-fun _137 () FF0)
(declare-fun _136 () FF0)
(declare-fun _28 () FF0)
(declare-fun _27 () FF0)
(declare-fun _23 () FF0)
(declare-fun _130 () FF0)
(declare-fun _8 () FF0)
(declare-fun _120 () FF0)
(declare-fun _119 () FF0)
(declare-fun _36 () FF0)
(declare-fun _94 () FF0)
(declare-fun _110 () FF0)
(declare-fun _106 () FF0)
(declare-fun _109 () FF0)
(declare-fun _104 () FF0)
(declare-fun _103 () FF0)
(declare-fun _0 () FF0)
(declare-fun _71 () FF0)
(declare-fun _70 () FF0)
(declare-fun _39 () FF0)
(declare-fun _2 () FF0)
(declare-fun _1 () FF0)
(declare-fun _86 () FF0)
(declare-fun _31 () FF0)
(declare-fun _78 () FF0)
(declare-fun _7 () FF0)
(declare-fun _77 () FF0)
(declare-fun _75 () FF0)
(declare-fun _65 () FF0)
(declare-fun _9 () FF0)
(declare-fun _64 () FF0)
(declare-fun _63 () FF0)
(declare-fun _10 () FF0)
(declare-fun _62 () FF0)
(declare-fun _61 () FF0)
(declare-fun _4 () FF0)
(declare-fun _60 () FF0)
(declare-fun _59 () FF0)
(declare-fun _58 () FF0)
(declare-fun _57 () FF0)
(declare-fun _56 () FF0)
(declare-fun _55 () FF0)
(declare-fun _54 () FF0)
(declare-fun _53 () FF0)
(declare-fun _51 () FF0)
(declare-fun _50 () FF0)
(declare-fun _49 () FF0)
(declare-fun _48 () FF0)
(declare-fun _47 () FF0)
(declare-fun _46 () FF0)
(declare-fun _45 () FF0)
(declare-fun _44 () FF0)
(declare-fun _43 () FF0)
(declare-fun _42 () FF0)
(declare-fun _41 () FF0)
(declare-fun _40 () FF0)
(declare-fun _38 () FF0)
(declare-fun _37 () FF0)
(declare-fun _35 () FF0)
(declare-fun _16 () FF0)
(declare-fun _15 () FF0)
(assert 
  (let ((let0 j))
  (let ((let1 e))
  (let ((let2 a))
  (let ((let3 h))
  (let ((let4 (= let0 let3)))
  (let ((let5 (ite let4 let2 let1)))
  (let ((let6 (=> let5 let0)))
  (let ((let7 (= let6 let5)))
  (let ((let8 (or let7 let6)))
  (let ((let9 (not let8)))
  (let ((let10 i))
  (let ((let11 f))
  (let ((let12 (=> let2 let11)))
  (let ((let13 c))
  (let ((let14 (ite let13 let12 let10)))
  (let ((let15 (not let14)))
  (let ((let16 (= let15 let9)))
  (let ((let17 (and let4 let7)))
  (let ((let18 (not let7)))
  (let ((let19 b))
  (let ((let20 (or let19 let13 let10)))
  (let ((let21 d))
  (let ((let22 (or let3 let21 let20 let1)))
  (let ((let23 g))
  (let ((let24 (and let23 let1 let2 let12 let22 let21 let13 let19 let11 let19 let3 let22 let0 let23)))
  (let ((let25 (or let21 let14 let20 let24 let24 let14 let13 let4 let2 let24 let1 let20 let4 let14)))
  (let ((let26 (=> let25 let25)))
  (let ((let27 (ite let23 let26 let0)))
  (let ((let28 (and let27 let22)))
  (let ((let29 (=> let26 let6)))
  (let ((let30 (and let25 let19 let29)))
  (let ((let31 (or let30 let28 let18 let3)))
  (let ((let32 (ite let31 let17 let15)))
  (let ((let33 (or let32 let16 let16)))
  (let ((let34 (ite let11 let19 let27)))
  (let ((let35 (=> let27 let34)))
  (let ((let36 (not let28)))
  (let ((let37 (=> let36 let35)))
  (let ((let38 (=> let13 let37)))
  (let ((let39 (not let38)))
  (let ((let40 (not let30)))
  (let ((let41 (ite let22 let40 let27)))
  (let ((let42 (= let2 let41)))
  (let ((let43 (or let11 let37)))
  (let ((let44 (and let43 let17 let42 let35)))
  (let ((let45 (ite let18 let12 let10)))
  (let ((let46 (not let34)))
  (let ((let47 (or let46 let30 let20 let45)))
  (let ((let48 (not let29)))
  (let ((let49 (ite let48 let10 let45)))
  (let ((let50 (not let48)))
  (let ((let51 (and let28 let50 let12)))
  (let ((let52 (=> let34 let21)))
  (let ((let53 (=> let52 let49)))
  (let ((let54 (= let53 let8)))
  (let ((let55 (or let15 let49 let51 let54 let48 let8 let51 let32 let23 let17 let17)))
  (let ((let56 (ite let55 let49 let47)))
  (let ((let57 (or let56 let31 let44)))
  (let ((let58 (ite let50 let57 let18)))
  (let ((let59 (or let11 let45 let32 let26 let26 let31 let30 let6 let47 let46 let21 let24 let8 let47)))
  (let ((let60 (or let59 let7)))
  (let ((let61 (= let59 let46)))
  (let ((let62 (ite let37 let43 let54)))
  (let ((let63 (ite let62 let53 let50)))
  (let ((let64 (ite let36 let55 let62)))
  (let ((let65 (ite let50 let51 let40)))
  (let ((let66 (ite let52 let46 let9)))
  (let ((let67 (= let28 let57)))
  (let ((let68 (and let57 let28)))
  (let ((let69 (and let68 let67 let36 let66 let65 let64 let63 let61 let60 let58 let39 let33)))
  (let ((let70 out))
  (let ((let71 (as ff1 FF0)))
  (let ((let72 (= let71 let70)))
  (let ((let73 (= let72 let69)))
  (let ((let74 (as ff0 FF0)))
  (let ((let75 (= let74 let70)))
  (let ((let76 (or let72 let75)))
  (let ((let77 (and let76 let73)))
  (let ((let78 _219))
  (let ((let79 _87))
  (let ((let80 _218))
  (let ((let81 (ff.mul let80 let79)))
  (let ((let82 (= let81 let78)))
  (let ((let83 (as ff52435875175126190479447740508185965837690552500527637822603658699938581184512 FF0)))
  (let ((let84 _97))
  (let ((let85 (ff.mul let84 let83)))
  (let ((let86 (ff.add let85 let71)))
  (let ((let87 _217))
  (let ((let88 (ff.mul let87 let86)))
  (let ((let89 (= let88 let80)))
  (let ((let90 _158))
  (let ((let91 _157))
  (let ((let92 (ff.add let91 let90)))
  (let ((let93 _216))
  (let ((let94 (ff.mul let93 let92)))
  (let ((let95 (= let94 let87)))
  (let ((let96 _173))
  (let ((let97 _215))
  (let ((let98 (ff.mul let97 let96)))
  (let ((let99 (= let98 let93)))
  (let ((let100 _174))
  (let ((let101 (ff.mul let100 let83)))
  (let ((let102 (ff.add let101 let71)))
  (let ((let103 _214))
  (let ((let104 (ff.mul let103 let102)))
  (let ((let105 (= let104 let97)))
  (let ((let106 _186))
  (let ((let107 _185))
  (let ((let108 (ff.add let107 let106)))
  (let ((let109 _213))
  (let ((let110 (ff.mul let109 let108)))
  (let ((let111 (= let110 let103)))
  (let ((let112 _192))
  (let ((let113 _191))
  (let ((let114 (ff.add let113 let112)))
  (let ((let115 _212))
  (let ((let116 (ff.mul let115 let114)))
  (let ((let117 (= let116 let109)))
  (let ((let118 _198))
  (let ((let119 _197))
  (let ((let120 (ff.add let119 let118)))
  (let ((let121 _211))
  (let ((let122 (ff.mul let121 let120)))
  (let ((let123 (= let122 let115)))
  (let ((let124 _204))
  (let ((let125 _203))
  (let ((let126 (ff.add let125 let124)))
  (let ((let127 _210))
  (let ((let128 (ff.mul let127 let126)))
  (let ((let129 (= let128 let121)))
  (let ((let130 _73))
  (let ((let131 (ff.mul let130 let83)))
  (let ((let132 (ff.add let131 let71)))
  (let ((let133 _209))
  (let ((let134 (ff.mul let133 let132)))
  (let ((let135 (= let134 let127)))
  (let ((let136 _206))
  (let ((let137 (ff.mul let136 let83)))
  (let ((let138 (ff.add let137 let71)))
  (let ((let139 _208))
  (let ((let140 (ff.mul let139 let138)))
  (let ((let141 (= let140 let133)))
  (let ((let142 _153))
  (let ((let143 (ff.mul let142 let130)))
  (let ((let144 (= let143 let139)))
  (let ((let145 (ff.mul let142 let83)))
  (let ((let146 (ff.add let130 let145)))
  (let ((let147 (ff.mul let146 let146)))
  (let ((let148 (= let147 let136)))
  (let ((let149 _21))
  (let ((let150 (ff.mul let149 let83)))
  (let ((let151 (ff.add let150 let71)))
  (let ((let152 _132))
  (let ((let153 (ff.mul let152 let83)))
  (let ((let154 (ff.add let153 let71)))
  (let ((let155 (ff.mul let154 let151)))
  (let ((let156 (= let155 let124)))
  (let ((let157 _92))
  (let ((let158 (ff.mul let157 let83)))
  (let ((let159 _91))
  (let ((let160 (ff.mul let159 let83)))
  (let ((let161 (ff.add let160 let158 let71)))
  (let ((let162 (ff.mul let152 let161)))
  (let ((let163 (= let162 let125)))
  (let ((let164 _76))
  (let ((let165 (ff.mul let164 let83)))
  (let ((let166 (ff.add let165 let71)))
  (let ((let167 _74))
  (let ((let168 (ff.mul let167 let83)))
  (let ((let169 (ff.add let168 let71)))
  (let ((let170 (ff.mul let169 let166)))
  (let ((let171 (= let170 let118)))
  (let ((let172 _131))
  (let ((let173 (ff.mul let167 let172)))
  (let ((let174 (= let173 let119)))
  (let ((let175 _180))
  (let ((let176 _179))
  (let ((let177 (ff.add let176 let175)))
  (let ((let178 (ff.mul let130 let177)))
  (let ((let179 (= let178 let112)))
  (let ((let180 _145))
  (let ((let181 (ff.mul let132 let180)))
  (let ((let182 (= let181 let113)))
  (let ((let183 (ff.mul let175 let83)))
  (let ((let184 (ff.mul let176 let83)))
  (let ((let185 (ff.add let184 let183 let71)))
  (let ((let186 (ff.mul let185 let167)))
  (let ((let187 (= let186 let106)))
  (let ((let188 _133))
  (let ((let189 (ff.mul let177 let188)))
  (let ((let190 (= let189 let107)))
  (let ((let191 _134))
  (let ((let192 (ff.mul let191 let83)))
  (let ((let193 (ff.add let192 let71)))
  (let ((let194 _96))
  (let ((let195 (ff.mul let194 let83)))
  (let ((let196 (ff.add let195 let71)))
  (let ((let197 (ff.mul let196 let193)))
  (let ((let198 (= let197 let175)))
  (let ((let199 _108))
  (let ((let200 (ff.mul let194 let199)))
  (let ((let201 (= let200 let176)))
  (let ((let202 _172))
  (let ((let203 (ff.add let159 let157 let202 let83)))
  (let ((let204 (ff.mul let203 let203)))
  (let ((let205 (= let204 let100)))
  (let ((let206 (ff.mul let96 let83)))
  (let ((let207 _19))
  (let ((let208 (ff.mul let207 let83)))
  (let ((let209 (ff.add let208 let202 let206 let71)))
  (let ((let210 (ff.add let208 let71)))
  (let ((let211 (ff.mul let202 let210)))
  (let ((let212 (= let211 let209)))
  (let ((let213 (ff.mul let202 let83)))
  (let ((let214 _171))
  (let ((let215 _121))
  (let ((let216 (ff.add let215 let214 let213)))
  (let ((let217 (ff.mul let214 let215)))
  (let ((let218 (= let217 let216)))
  (let ((let219 (ff.mul let214 let83)))
  (let ((let220 _170))
  (let ((let221 (ff.add let149 let220 let219)))
  (let ((let222 (ff.mul let220 let149)))
  (let ((let223 (= let222 let221)))
  (let ((let224 (ff.mul let220 let83)))
  (let ((let225 _169))
  (let ((let226 _52))
  (let ((let227 (ff.add let226 let225 let224)))
  (let ((let228 (ff.mul let225 let226)))
  (let ((let229 (= let228 let227)))
  (let ((let230 (ff.mul let225 let83)))
  (let ((let231 _168))
  (let ((let232 _3))
  (let ((let233 (ff.add let232 let231 let230)))
  (let ((let234 (ff.mul let231 let232)))
  (let ((let235 (= let234 let233)))
  (let ((let236 (ff.mul let231 let83)))
  (let ((let237 _167))
  (let ((let238 (ff.add let160 let158 let237 let236 let71)))
  (let ((let239 (ff.mul let237 let161)))
  (let ((let240 (= let239 let238)))
  (let ((let241 (ff.mul let237 let83)))
  (let ((let242 _166))
  (let ((let243 (ff.add let215 let242 let241)))
  (let ((let244 (ff.mul let242 let215)))
  (let ((let245 (= let244 let243)))
  (let ((let246 (ff.mul let242 let83)))
  (let ((let247 _165))
  (let ((let248 _18))
  (let ((let249 (ff.add let248 let247 let246)))
  (let ((let250 (ff.mul let247 let248)))
  (let ((let251 (= let250 let249)))
  (let ((let252 (ff.mul let247 let83)))
  (let ((let253 _164))
  (let ((let254 (ff.add let164 let253 let252)))
  (let ((let255 (ff.mul let253 let164)))
  (let ((let256 (= let255 let254)))
  (let ((let257 (ff.mul let253 let83)))
  (let ((let258 _163))
  (let ((let259 _79))
  (let ((let260 (ff.add let259 let258 let257)))
  (let ((let261 (ff.mul let258 let259)))
  (let ((let262 (= let261 let260)))
  (let ((let263 (ff.mul let258 let83)))
  (let ((let264 _162))
  (let ((let265 _66))
  (let ((let266 (ff.add let265 let264 let263)))
  (let ((let267 (ff.mul let264 let265)))
  (let ((let268 (= let267 let266)))
  (let ((let269 (ff.mul let264 let83)))
  (let ((let270 _161))
  (let ((let271 (ff.add let265 let270 let269)))
  (let ((let272 (ff.mul let270 let265)))
  (let ((let273 (= let272 let271)))
  (let ((let274 (ff.mul let270 let83)))
  (let ((let275 _160))
  (let ((let276 _84))
  (let ((let277 _83))
  (let ((let278 (ff.add let277 let276 let275 let274)))
  (let ((let279 (ff.add let277 let276)))
  (let ((let280 (ff.mul let275 let279)))
  (let ((let281 (= let280 let278)))
  (let ((let282 (ff.mul let275 let83)))
  (let ((let283 _116))
  (let ((let284 _115))
  (let ((let285 _5))
  (let ((let286 (ff.add let285 let284 let283 let282)))
  (let ((let287 (ff.add let284 let283)))
  (let ((let288 (ff.mul let285 let287)))
  (let ((let289 (= let288 let286)))
  (let ((let290 (ff.mul let169 let207)))
  (let ((let291 (= let290 let90)))
  (let ((let292 (ff.mul let167 let142)))
  (let ((let293 (= let292 let91)))
  (let ((let294 _152))
  (let ((let295 _111))
  (let ((let296 (ff.add let295 let294 let145)))
  (let ((let297 (ff.mul let294 let295)))
  (let ((let298 (= let297 let296)))
  (let ((let299 (ff.mul let294 let83)))
  (let ((let300 _150))
  (let ((let301 _149))
  (let ((let302 (ff.add let259 let301 let300 let299)))
  (let ((let303 (ff.add let301 let300)))
  (let ((let304 (ff.mul let303 let259)))
  (let ((let305 (= let304 let302)))
  (let ((let306 (ff.mul let180 let83)))
  (let ((let307 (ff.add let306 let71)))
  (let ((let308 (ff.mul let307 let215)))
  (let ((let309 (= let308 let300)))
  (let ((let310 _127))
  (let ((let311 _126))
  (let ((let312 (ff.add let311 let310)))
  (let ((let313 (ff.mul let180 let312)))
  (let ((let314 (= let313 let301)))
  (let ((let315 _144))
  (let ((let316 _33))
  (let ((let317 (ff.add let316 let315 let306)))
  (let ((let318 (ff.mul let315 let316)))
  (let ((let319 (= let318 let317)))
  (let ((let320 (ff.mul let315 let83)))
  (let ((let321 _143))
  (let ((let322 (ff.add let316 let321 let320)))
  (let ((let323 (ff.mul let321 let316)))
  (let ((let324 (= let323 let322)))
  (let ((let325 (ff.mul let321 let83)))
  (let ((let326 _142))
  (let ((let327 _6))
  (let ((let328 (ff.add let327 let326 let325)))
  (let ((let329 (ff.mul let326 let327)))
  (let ((let330 (= let329 let328)))
  (let ((let331 (ff.mul let326 let83)))
  (let ((let332 _141))
  (let ((let333 (ff.add let277 let276 let332 let331)))
  (let ((let334 (ff.mul let332 let279)))
  (let ((let335 (= let334 let333)))
  (let ((let336 (ff.mul let332 let83)))
  (let ((let337 _140))
  (let ((let338 (ff.add let172 let337 let336)))
  (let ((let339 (ff.mul let337 let172)))
  (let ((let340 (= let339 let338)))
  (let ((let341 (ff.mul let337 let83)))
  (let ((let342 _139))
  (let ((let343 (ff.add let149 let342 let341)))
  (let ((let344 (ff.mul let342 let149)))
  (let ((let345 (= let344 let343)))
  (let ((let346 (ff.mul let342 let83)))
  (let ((let347 _138))
  (let ((let348 (ff.add let168 let347 let346 let71)))
  (let ((let349 (ff.mul let347 let169)))
  (let ((let350 (= let349 let348)))
  (let ((let351 (ff.mul let347 let83)))
  (let ((let352 _137))
  (let ((let353 (ff.add let192 let352 let351 let71)))
  (let ((let354 (ff.mul let352 let193)))
  (let ((let355 (= let354 let353)))
  (let ((let356 (ff.mul let352 let83)))
  (let ((let357 _136))
  (let ((let358 (ff.add let172 let357 let356)))
  (let ((let359 (ff.mul let357 let172)))
  (let ((let360 (= let359 let358)))
  (let ((let361 (ff.mul let357 let83)))
  (let ((let362 _28))
  (let ((let363 (ff.mul let362 let83)))
  (let ((let364 _27))
  (let ((let365 (ff.mul let364 let83)))
  (let ((let366 (ff.add let365 let363 let311 let310 let361 let71)))
  (let ((let367 (ff.add let365 let363 let71)))
  (let ((let368 (ff.mul let367 let312)))
  (let ((let369 (= let368 let366)))
  (let ((let370 (ff.add let150 let188)))
  (let ((let371 (ff.mul let370 let370)))
  (let ((let372 (= let371 let191)))
  (let ((let373 (ff.mul let188 let83)))
  (let ((let374 (ff.add let311 let310 let153 let373 let71)))
  (let ((let375 (ff.mul let154 let312)))
  (let ((let376 (= let375 let374)))
  (let ((let377 (ff.add let232 let160 let158 let153 let71)))
  (let ((let378 (ff.mul let161 let232)))
  (let ((let379 (= let378 let377)))
  (let ((let380 _23))
  (let ((let381 _130))
  (let ((let382 (ff.mul let381 let380)))
  (let ((let383 (= let382 let172)))
  (let ((let384 (ff.mul let130 let167)))
  (let ((let385 (= let384 let381)))
  (let ((let386 (ff.mul let167 let287)))
  (let ((let387 (= let386 let310)))
  (let ((let388 _8))
  (let ((let389 (ff.mul let169 let388)))
  (let ((let390 (= let389 let311)))
  (let ((let391 (ff.mul let215 let83)))
  (let ((let392 _120))
  (let ((let393 (ff.add let284 let283 let392 let391)))
  (let ((let394 (ff.mul let392 let287)))
  (let ((let395 (= let394 let393)))
  (let ((let396 (ff.mul let392 let83)))
  (let ((let397 _119))
  (let ((let398 _36))
  (let ((let399 (ff.add let398 let397 let396)))
  (let ((let400 (ff.mul let397 let398)))
  (let ((let401 (= let400 let399)))
  (let ((let402 (ff.mul let397 let83)))
  (let ((let403 (ff.add let164 let160 let158 let402 let71)))
  (let ((let404 (ff.mul let161 let164)))
  (let ((let405 (= let404 let403)))
  (let ((let406 (ff.mul let210 let388)))
  (let ((let407 (= let406 let283)))
  (let ((let408 (ff.mul let207 let380)))
  (let ((let409 (= let408 let284)))
  (let ((let410 _94))
  (let ((let411 _110))
  (let ((let412 (ff.mul let411 let410)))
  (let ((let413 (= let412 let295)))
  (let ((let414 _106))
  (let ((let415 (ff.mul let414 let83)))
  (let ((let416 (ff.add let415 let71)))
  (let ((let417 _109))
  (let ((let418 (ff.mul let417 let416)))
  (let ((let419 (= let418 let411)))
  (let ((let420 (ff.mul let199 let316)))
  (let ((let421 (= let420 let417)))
  (let ((let422 (ff.mul let199 let83)))
  (let ((let423 (ff.add let285 let194 let422)))
  (let ((let424 (ff.mul let285 let194)))
  (let ((let425 (= let424 let423)))
  (let ((let426 _104))
  (let ((let427 (ff.mul let426 let83)))
  (let ((let428 _103))
  (let ((let429 (ff.mul let428 let83)))
  (let ((let430 _0))
  (let ((let431 (ff.add let430 let429 let427)))
  (let ((let432 (ff.mul let431 let431)))
  (let ((let433 (= let432 let414)))
  (let ((let434 _71))
  (let ((let435 _70))
  (let ((let436 (ff.add let435 let434)))
  (let ((let437 _39))
  (let ((let438 (ff.mul let437 let83)))
  (let ((let439 (ff.add let438 let71)))
  (let ((let440 (ff.mul let439 let436)))
  (let ((let441 (= let440 let426)))
  (let ((let442 (ff.mul let437 let166)))
  (let ((let443 (= let442 let428)))
  (let ((let444 _2))
  (let ((let445 (ff.mul let444 let83)))
  (let ((let446 (ff.add let445 let194 let85 let71)))
  (let ((let447 (ff.add let445 let71)))
  (let ((let448 (ff.mul let447 let194)))
  (let ((let449 (= let448 let446)))
  (let ((let450 (ff.add let130 let410 let195)))
  (let ((let451 (ff.mul let130 let410)))
  (let ((let452 (= let451 let450)))
  (let ((let453 (ff.mul let410 let83)))
  (let ((let454 (ff.mul let434 let83)))
  (let ((let455 (ff.mul let435 let83)))
  (let ((let456 (ff.add let455 let454 let159 let157 let453 let71)))
  (let ((let457 (ff.add let159 let157)))
  (let ((let458 (ff.add let455 let454 let71)))
  (let ((let459 (ff.mul let458 let457)))
  (let ((let460 (= let459 let456)))
  (let ((let461 (ff.mul let285 let83)))
  (let ((let462 (ff.add let461 let71)))
  (let ((let463 (ff.mul let462 let436)))
  (let ((let464 (= let463 let157)))
  (let ((let465 _1))
  (let ((let466 (ff.mul let285 let465)))
  (let ((let467 (= let466 let159)))
  (let ((let468 (ff.mul let79 let83)))
  (let ((let469 _86))
  (let ((let470 _31))
  (let ((let471 (ff.mul let470 let83)))
  (let ((let472 (ff.add let471 let469 let468 let71)))
  (let ((let473 (ff.add let471 let71)))
  (let ((let474 (ff.mul let469 let473)))
  (let ((let475 (= let474 let472)))
  (let ((let476 (ff.mul let469 let83)))
  (let ((let477 (ff.add let471 let277 let276 let476 let71)))
  (let ((let478 (ff.mul let279 let473)))
  (let ((let479 (= let478 let477)))
  (let ((let480 (ff.mul let259 let83)))
  (let ((let481 (ff.add let480 let71)))
  (let ((let482 (ff.mul let481 let367)))
  (let ((let483 (= let482 let276)))
  (let ((let484 (ff.mul let259 let316)))
  (let ((let485 (= let484 let277)))
  (let ((let486 _78))
  (let ((let487 _7))
  (let ((let488 (ff.add let487 let486 let480)))
  (let ((let489 (ff.mul let486 let487)))
  (let ((let490 (= let489 let488)))
  (let ((let491 (ff.mul let486 let83)))
  (let ((let492 _77))
  (let ((let493 (ff.add let207 let492 let491)))
  (let ((let494 (ff.mul let492 let207)))
  (let ((let495 (= let494 let493)))
  (let ((let496 (ff.mul let492 let83)))
  (let ((let497 (ff.add let130 let164 let496)))
  (let ((let498 (ff.mul let164 let130)))
  (let ((let499 (= let498 let497)))
  (let ((let500 _75))
  (let ((let501 (ff.mul let500 let167)))
  (let ((let502 (= let501 let164)))
  (let ((let503 _65))
  (let ((let504 (ff.mul let503 let465)))
  (let ((let505 (= let504 let500)))
  (let ((let506 (ff.mul let265 let83)))
  (let ((let507 (ff.add let248 let506 let168 let71)))
  (let ((let508 (ff.add let506 let71)))
  (let ((let509 (ff.mul let508 let248)))
  (let ((let510 (= let509 let507)))
  (let ((let511 (ff.mul let436 let437)))
  (let ((let512 (= let511 let130)))
  (let ((let513 _9))
  (let ((let514 (ff.mul let327 let83)))
  (let ((let515 (ff.add let514 let71)))
  (let ((let516 (ff.mul let515 let513)))
  (let ((let517 (= let516 let434)))
  (let ((let518 (ff.mul let327 let265)))
  (let ((let519 (= let518 let435)))
  (let ((let520 (ff.mul let503 let83)))
  (let ((let521 (ff.add let520 let71)))
  (let ((let522 (ff.mul let521 let503)))
  (let ((let523 (= let522 let508)))
  (let ((let524 _64))
  (let ((let525 (ff.add let364 let362 let524 let520)))
  (let ((let526 (ff.add let364 let362)))
  (let ((let527 (ff.mul let524 let526)))
  (let ((let528 (= let527 let525)))
  (let ((let529 (ff.mul let524 let83)))
  (let ((let530 _63))
  (let ((let531 _10))
  (let ((let532 (ff.mul let531 let83)))
  (let ((let533 (ff.add let532 let530 let529 let71)))
  (let ((let534 (ff.add let532 let71)))
  (let ((let535 (ff.mul let530 let534)))
  (let ((let536 (= let535 let533)))
  (let ((let537 (ff.mul let530 let83)))
  (let ((let538 _62))
  (let ((let539 (ff.add let398 let538 let537)))
  (let ((let540 (ff.mul let538 let398)))
  (let ((let541 (= let540 let539)))
  (let ((let542 (ff.mul let538 let83)))
  (let ((let543 _61))
  (let ((let544 _4))
  (let ((let545 (ff.add let544 let543 let542)))
  (let ((let546 (ff.mul let543 let544)))
  (let ((let547 (= let546 let545)))
  (let ((let548 (ff.mul let543 let83)))
  (let ((let549 _60))
  (let ((let550 (ff.add let226 let549 let548)))
  (let ((let551 (ff.mul let549 let226)))
  (let ((let552 (= let551 let550)))
  (let ((let553 (ff.mul let549 let83)))
  (let ((let554 _59))
  (let ((let555 (ff.add let430 let554 let553)))
  (let ((let556 (ff.mul let554 let430)))
  (let ((let557 (= let556 let555)))
  (let ((let558 (ff.mul let554 let83)))
  (let ((let559 _58))
  (let ((let560 (ff.add let532 let559 let558 let71)))
  (let ((let561 (ff.mul let559 let534)))
  (let ((let562 (= let561 let560)))
  (let ((let563 (ff.mul let559 let83)))
  (let ((let564 _57))
  (let ((let565 (ff.add let444 let564 let563)))
  (let ((let566 (ff.mul let564 let444)))
  (let ((let567 (= let566 let565)))
  (let ((let568 (ff.mul let564 let83)))
  (let ((let569 _56))
  (let ((let570 (ff.add let364 let362 let569 let568)))
  (let ((let571 (ff.mul let569 let526)))
  (let ((let572 (= let571 let570)))
  (let ((let573 (ff.mul let569 let83)))
  (let ((let574 _55))
  (let ((let575 (ff.add let226 let574 let573)))
  (let ((let576 (ff.mul let574 let226)))
  (let ((let577 (= let576 let575)))
  (let ((let578 (ff.mul let574 let83)))
  (let ((let579 _54))
  (let ((let580 (ff.add let226 let579 let578)))
  (let ((let581 (ff.mul let579 let226)))
  (let ((let582 (= let581 let580)))
  (let ((let583 (ff.mul let579 let83)))
  (let ((let584 _53))
  (let ((let585 (ff.add let398 let584 let583)))
  (let ((let586 (ff.mul let584 let398)))
  (let ((let587 (= let586 let585)))
  (let ((let588 (ff.mul let584 let83)))
  (let ((let589 (ff.add let232 let364 let362 let588)))
  (let ((let590 (ff.mul let232 let526)))
  (let ((let591 (= let590 let589)))
  (let ((let592 _51))
  (let ((let593 (ff.mul let592 let327)))
  (let ((let594 (= let593 let226)))
  (let ((let595 _50))
  (let ((let596 (ff.mul let595 let513)))
  (let ((let597 (= let596 let592)))
  (let ((let598 _49))
  (let ((let599 (ff.mul let598 let437)))
  (let ((let600 (= let599 let595)))
  (let ((let601 _48))
  (let ((let602 (ff.mul let601 let487)))
  (let ((let603 (= let602 let598)))
  (let ((let604 _47))
  (let ((let605 (ff.mul let604 let465)))
  (let ((let606 (= let605 let601)))
  (let ((let607 _46))
  (let ((let608 (ff.mul let607 let285)))
  (let ((let609 (= let608 let604)))
  (let ((let610 _45))
  (let ((let611 (ff.mul let610 let465)))
  (let ((let612 (= let611 let607)))
  (let ((let613 _44))
  (let ((let614 (ff.mul let613 let444)))
  (let ((let615 (= let614 let610)))
  (let ((let616 _43))
  (let ((let617 (ff.mul let616 let232)))
  (let ((let618 (= let617 let613)))
  (let ((let619 _42))
  (let ((let620 (ff.mul let619 let437)))
  (let ((let621 (= let620 let616)))
  (let ((let622 _41))
  (let ((let623 (ff.mul let622 let380)))
  (let ((let624 (= let623 let619)))
  (let ((let625 _40))
  (let ((let626 (ff.mul let625 let430)))
  (let ((let627 (= let626 let622)))
  (let ((let628 (ff.mul let327 let544)))
  (let ((let629 (= let628 let625)))
  (let ((let630 _38))
  (let ((let631 (ff.add let544 let630 let438)))
  (let ((let632 (ff.mul let630 let544)))
  (let ((let633 (= let632 let631)))
  (let ((let634 (ff.mul let630 let83)))
  (let ((let635 _37))
  (let ((let636 (ff.add let398 let635 let634)))
  (let ((let637 (ff.mul let635 let398)))
  (let ((let638 (= let637 let636)))
  (let ((let639 (ff.mul let635 let83)))
  (let ((let640 (ff.add let232 let487 let639)))
  (let ((let641 (ff.mul let487 let232)))
  (let ((let642 (= let641 let640)))
  (let ((let643 (ff.mul let398 let83)))
  (let ((let644 _35))
  (let ((let645 (ff.add let388 let644 let643)))
  (let ((let646 (ff.mul let644 let388)))
  (let ((let647 (= let646 let645)))
  (let ((let648 (ff.mul let644 let83)))
  (let ((let649 (ff.add let465 let444 let648)))
  (let ((let650 (ff.mul let465 let444)))
  (let ((let651 (= let650 let649)))
  (let ((let652 (ff.mul let534 let210)))
  (let ((let653 (= let652 let316)))
  (let ((let654 (ff.add let149 let365 let363)))
  (let ((let655 (ff.mul let654 let654)))
  (let ((let656 (= let655 let470)))
  (let ((let657 (ff.mul let447 let388)))
  (let ((let658 (= let657 let362)))
  (let ((let659 (ff.mul let444 let380)))
  (let ((let660 (= let659 let364)))
  (let ((let661 (ff.mul let380 let83)))
  (let ((let662 (ff.mul let430 let83)))
  (let ((let663 (ff.add let662 let285 let661 let71)))
  (let ((let664 (ff.add let662 let71)))
  (let ((let665 (ff.mul let664 let285)))
  (let ((let666 (= let665 let663)))
  (let ((let667 (ff.add let248 let208 let150 let71)))
  (let ((let668 (ff.mul let210 let248)))
  (let ((let669 (= let668 let667)))
  (let ((let670 _16))
  (let ((let671 (ff.mul let670 let83)))
  (let ((let672 _15))
  (let ((let673 (ff.mul let672 let83)))
  (let ((let674 (ff.add let673 let671 let248)))
  (let ((let675 (ff.mul let674 let674)))
  (let ((let676 (= let675 let207)))
  (let ((let677 (ff.mul let248 let83)))
  (let ((let678 (ff.add let513 let673 let671 let677 let71)))
  (let ((let679 (ff.add let673 let671 let71)))
  (let ((let680 (ff.mul let679 let513)))
  (let ((let681 (= let680 let678)))
  (let ((let682 (ff.mul let531 let544)))
  (let ((let683 (= let682 let670)))
  (let ((let684 (ff.mul let534 let430)))
  (let ((let685 (= let684 let672)))
  (let ((let686 (ff.mul let487 let83)))
  (let ((let687 (ff.add let686 let513)))
  (let ((let688 (ff.mul let687 let687)))
  (let ((let689 (= let688 let531)))
  (let ((let690 (ff.mul let513 let513)))
  (let ((let691 (= let690 let513)))
  (let ((let692 (ff.mul let388 let388)))
  (let ((let693 (= let692 let388)))
  (let ((let694 (ff.mul let487 let487)))
  (let ((let695 (= let694 let487)))
  (let ((let696 (ff.mul let327 let327)))
  (let ((let697 (= let696 let327)))
  (let ((let698 (ff.mul let285 let285)))
  (let ((let699 (= let698 let285)))
  (let ((let700 (ff.mul let544 let544)))
  (let ((let701 (= let700 let544)))
  (let ((let702 (ff.mul let232 let232)))
  (let ((let703 (= let702 let232)))
  (let ((let704 (ff.mul let444 let444)))
  (let ((let705 (= let704 let444)))
  (let ((let706 (ff.mul let465 let465)))
  (let ((let707 (= let706 let465)))
  (let ((let708 (ff.mul let430 let430)))
  (let ((let709 (= let708 let430)))
  (let ((let710 (and let709 let707 let705 let703 let701 let699 let697 let695 let693 let691 let689 let685 let683 let681 let676 let669 let666 let660 let658 let656 let653 let651 let647 let642 let638 let633 let629 let627 let624 let621 let618 let615 let612 let609 let606 let603 let600 let597 let594 let591 let587 let582 let577 let572 let567 let562 let557 let552 let547 let541 let536 let528 let523 let519 let517 let512 let510 let505 let502 let499 let495 let490 let485 let483 let479 let475 let467 let464 let460 let452 let449 let443 let441 let433 let425 let421 let419 let413 let409 let407 let405 let401 let395 let390 let387 let385 let383 let379 let376 let372 let369 let360 let355 let350 let345 let340 let335 let330 let324 let319 let314 let309 let305 let298 let293 let291 let289 let281 let273 let268 let262 let256 let251 let245 let240 let235 let229 let223 let218 let212 let205 let201 let198 let190 let187 let182 let179 let174 let171 let163 let156 let148 let144 let141 let135 let129 let123 let117 let111 let105 let99 let95 let89 let82)))
  (let ((let711 (ite let13 let71 let74)))
  (let ((let712 (= let444 let711)))
  (let ((let713 (ite let2 let71 let74)))
  (let ((let714 (= let430 let713)))
  (let ((let715 (ite let1 let71 let74)))
  (let ((let716 (= let544 let715)))
  (let ((let717 (ite let21 let71 let74)))
  (let ((let718 (= let232 let717)))
  (let ((let719 (ite let19 let71 let74)))
  (let ((let720 (= let465 let719)))
  (let ((let721 (ite let0 let71 let74)))
  (let ((let722 (= let513 let721)))
  (let ((let723 (ite let3 let71 let74)))
  (let ((let724 (= let487 let723)))
  (let ((let725 (ite let11 let71 let74)))
  (let ((let726 (= let285 let725)))
  (let ((let727 (ite let10 let71 let74)))
  (let ((let728 (= let388 let727)))
  (let ((let729 (ite let23 let71 let74)))
  (let ((let730 (= let327 let729)))
  (let ((let731 (and let730 let728 let726 let724 let722 let720 let718 let716 let714 let712)))
  (let ((let732 (and let731 let710)))
  (let ((let733 (=> let732 let77)))
  (let ((let734 (not let733)))
  let734
)))))))))))))))))))))))))))))))))))))))))))))))))))))))))))))))))))))))))))))))))))))))))))))))))))))))))))))))))))))))))))))))))))))))))))))))))))))))))))))))))))))))))))))))))))))))))))))))))))))))))))))))))))))))))))))))))))))))))))))))))))))))))))))))))))))))))))))))))))))))))))))))))))))))))))))))))))))))))))))))))))))))))))))))))))))))))))))))))))))))))))))))))))))))))))))))))))))))))))))))))))))))))))))))))))))))))))))))))))))))))))))))))))))))))))))))))))))))))))))))))))))))))))))))))))))))))))))))))))))))))))))))))))))))))))))))))))))))))))))))))))))))))))))))))))))))))))))))))))))))))))))))))))))))))))))))))))))))))))))))))))))))))))))))))))))))))))))))))))))))))))))))))))))))))))))))))))))))))))))))))))))))))))))))
)
(check-sat)
